Results/Experiment 1 Results/New Benchmark/RES_40/output_p1_0.75_p2_0.00_n_40_15.txt
solutions: 0 nodes: 0  modelTime: 126  solveTime: 9  totalTime: 138  modelSize: 7362  readTime: 3 matchingSize: 0
